c 
c G(n,p) graph
c graph gen seed     : 9101
c number of vertices : 70
c max number of edges: 2415
c edge probability   : 0.400000
c data structure     : sparse
c
c           Graph Stats
c number of vertices  : 70
c nonisolated vertices: 70
c number of edges     : 1003
c edge density        : 0.415321
c max degree          : 37
c avg degree          : 28.66
c min degree          : 16
p col 70 1003
e 1 68
e 1 66
e 1 65
e 1 63
e 1 60
e 1 59
e 1 58
e 1 54
e 1 52
e 1 49
e 1 47
e 1 44
e 1 39
e 1 36
e 1 33
e 1 30
e 1 28
e 1 27
e 1 25
e 1 22
e 1 21
e 1 19
e 1 18
e 1 17
e 1 15
e 1 14
e 1 11
e 1 8
e 1 7
e 1 6
e 1 4
e 1 3
e 1 2
e 2 69
e 2 67
e 2 59
e 2 54
e 2 51
e 2 48
e 2 42
e 2 40
e 2 39
e 2 38
e 2 37
e 2 33
e 2 32
e 2 31
e 2 25
e 2 24
e 2 23
e 2 17
e 2 15
e 2 9
e 2 4
e 3 70
e 3 67
e 3 65
e 3 59
e 3 58
e 3 56
e 3 54
e 3 51
e 3 43
e 3 42
e 3 41
e 3 39
e 3 36
e 3 33
e 3 31
e 3 30
e 3 28
e 3 26
e 3 23
e 3 21
e 3 19
e 3 18
e 3 17
e 3 15
e 3 14
e 3 13
e 3 8
e 3 6
e 4 67
e 4 65
e 4 58
e 4 56
e 4 55
e 4 54
e 4 51
e 4 50
e 4 47
e 4 46
e 4 44
e 4 40
e 4 38
e 4 37
e 4 36
e 4 31
e 4 30
e 4 28
e 4 26
e 4 25
e 4 22
e 4 21
e 4 20
e 4 19
e 4 17
e 4 15
e 4 10
e 4 8
e 5 69
e 5 68
e 5 64
e 5 63
e 5 61
e 5 59
e 5 58
e 5 57
e 5 56
e 5 53
e 5 47
e 5 45
e 5 44
e 5 40
e 5 38
e 5 37
e 5 34
e 5 30
e 5 27
e 5 18
e 5 15
e 5 13
e 5 10
e 5 8
e 5 7
e 6 69
e 6 67
e 6 64
e 6 63
e 6 62
e 6 57
e 6 54
e 6 53
e 6 49
e 6 46
e 6 43
e 6 42
e 6 41
e 6 39
e 6 38
e 6 37
e 6 34
e 6 33
e 6 31
e 6 30
e 6 29
e 6 28
e 6 25
e 6 24
e 6 22
e 6 21
e 6 20
e 6 19
e 6 16
e 6 14
e 6 9
e 6 8
e 6 7
e 7 70
e 7 67
e 7 65
e 7 64
e 7 63
e 7 61
e 7 60
e 7 57
e 7 56
e 7 53
e 7 52
e 7 49
e 7 48
e 7 45
e 7 44
e 7 43
e 7 42
e 7 40
e 7 35
e 7 33
e 7 30
e 7 29
e 7 25
e 7 24
e 7 23
e 7 22
e 7 18
e 7 16
e 7 15
e 7 11
e 7 10
e 7 8
e 8 70
e 8 69
e 8 68
e 8 66
e 8 62
e 8 60
e 8 54
e 8 53
e 8 49
e 8 47
e 8 45
e 8 44
e 8 42
e 8 41
e 8 37
e 8 35
e 8 34
e 8 33
e 8 29
e 8 28
e 8 26
e 8 25
e 8 23
e 8 20
e 8 15
e 8 13
e 8 12
e 8 10
e 9 68
e 9 66
e 9 64
e 9 62
e 9 58
e 9 54
e 9 50
e 9 48
e 9 44
e 9 41
e 9 38
e 9 37
e 9 35
e 9 32
e 9 31
e 9 29
e 9 28
e 9 22
e 9 21
e 9 19
e 9 17
e 9 14
e 9 11
e 10 70
e 10 66
e 10 64
e 10 63
e 10 59
e 10 57
e 10 54
e 10 52
e 10 50
e 10 48
e 10 46
e 10 43
e 10 41
e 10 40
e 10 39
e 10 37
e 10 36
e 10 35
e 10 30
e 10 28
e 10 26
e 10 24
e 10 20
e 10 18
e 10 11
e 11 70
e 11 68
e 11 67
e 11 65
e 11 64
e 11 63
e 11 61
e 11 51
e 11 50
e 11 48
e 11 46
e 11 44
e 11 40
e 11 37
e 11 36
e 11 25
e 11 21
e 11 19
e 11 18
e 11 17
e 11 15
e 11 14
e 11 13
e 11 12
e 12 69
e 12 68
e 12 67
e 12 66
e 12 65
e 12 63
e 12 62
e 12 58
e 12 54
e 12 52
e 12 51
e 12 48
e 12 37
e 12 36
e 12 33
e 12 32
e 12 31
e 12 28
e 12 25
e 12 23
e 12 21
e 12 18
e 12 17
e 12 16
e 13 70
e 13 69
e 13 68
e 13 61
e 13 59
e 13 58
e 13 54
e 13 53
e 13 51
e 13 47
e 13 46
e 13 45
e 13 42
e 13 40
e 13 39
e 13 32
e 13 29
e 13 24
e 13 23
e 13 21
e 13 20
e 13 19
e 13 17
e 13 14
e 14 65
e 14 64
e 14 63
e 14 62
e 14 59
e 14 57
e 14 56
e 14 54
e 14 53
e 14 52
e 14 51
e 14 49
e 14 45
e 14 42
e 14 40
e 14 37
e 14 36
e 14 34
e 14 31
e 14 29
e 14 24
e 14 22
e 14 21
e 15 69
e 15 68
e 15 66
e 15 63
e 15 62
e 15 61
e 15 60
e 15 57
e 15 56
e 15 53
e 15 50
e 15 48
e 15 44
e 15 41
e 15 38
e 15 37
e 15 33
e 15 30
e 15 26
e 15 25
e 15 21
e 15 20
e 16 68
e 16 65
e 16 61
e 16 59
e 16 57
e 16 56
e 16 54
e 16 53
e 16 51
e 16 48
e 16 43
e 16 42
e 16 41
e 16 40
e 16 38
e 16 36
e 16 33
e 16 30
e 16 26
e 17 68
e 17 67
e 17 66
e 17 65
e 17 64
e 17 60
e 17 58
e 17 57
e 17 56
e 17 55
e 17 53
e 17 50
e 17 49
e 17 46
e 17 45
e 17 44
e 17 43
e 17 42
e 17 41
e 17 35
e 17 32
e 17 31
e 17 28
e 17 26
e 17 23
e 17 22
e 17 21
e 17 18
e 18 68
e 18 65
e 18 63
e 18 62
e 18 57
e 18 55
e 18 53
e 18 51
e 18 50
e 18 47
e 18 43
e 18 40
e 18 38
e 18 36
e 18 30
e 18 23
e 18 21
e 18 20
e 18 19
e 19 70
e 19 68
e 19 65
e 19 57
e 19 56
e 19 55
e 19 54
e 19 53
e 19 51
e 19 50
e 19 48
e 19 44
e 19 43
e 19 42
e 19 36
e 19 34
e 19 33
e 19 30
e 19 29
e 19 25
e 19 24
e 19 21
e 20 66
e 20 64
e 20 61
e 20 57
e 20 55
e 20 53
e 20 52
e 20 51
e 20 49
e 20 46
e 20 44
e 20 42
e 20 41
e 20 34
e 20 29
e 20 22
e 20 21
e 21 67
e 21 64
e 21 60
e 21 54
e 21 53
e 21 49
e 21 47
e 21 44
e 21 43
e 21 42
e 21 41
e 21 39
e 21 38
e 21 36
e 21 35
e 21 27
e 21 26
e 21 25
e 21 22
e 22 70
e 22 68
e 22 67
e 22 66
e 22 64
e 22 58
e 22 55
e 22 54
e 22 53
e 22 45
e 22 42
e 22 40
e 22 39
e 22 34
e 22 33
e 22 32
e 22 30
e 22 29
e 22 27
e 22 24
e 23 69
e 23 68
e 23 67
e 23 66
e 23 64
e 23 62
e 23 61
e 23 60
e 23 58
e 23 56
e 23 55
e 23 54
e 23 53
e 23 49
e 23 44
e 23 41
e 23 38
e 23 36
e 23 35
e 23 31
e 23 28
e 23 25
e 23 24
e 24 69
e 24 68
e 24 66
e 24 62
e 24 59
e 24 58
e 24 55
e 24 51
e 24 50
e 24 49
e 24 47
e 24 46
e 24 41
e 24 38
e 24 37
e 24 36
e 24 30
e 24 29
e 24 28
e 24 25
e 25 70
e 25 68
e 25 67
e 25 66
e 25 64
e 25 61
e 25 60
e 25 59
e 25 56
e 25 54
e 25 53
e 25 52
e 25 50
e 25 48
e 25 44
e 25 37
e 25 32
e 25 30
e 25 29
e 25 26
e 26 69
e 26 68
e 26 65
e 26 63
e 26 54
e 26 51
e 26 49
e 26 43
e 26 40
e 26 38
e 26 36
e 26 34
e 26 30
e 26 28
e 27 66
e 27 65
e 27 64
e 27 63
e 27 61
e 27 60
e 27 59
e 27 57
e 27 53
e 27 52
e 27 47
e 27 41
e 27 38
e 27 37
e 27 34
e 27 33
e 27 31
e 27 30
e 28 68
e 28 65
e 28 64
e 28 62
e 28 59
e 28 56
e 28 55
e 28 54
e 28 53
e 28 48
e 28 44
e 28 43
e 28 39
e 28 37
e 28 35
e 28 34
e 28 32
e 29 70
e 29 66
e 29 65
e 29 64
e 29 59
e 29 58
e 29 56
e 29 55
e 29 52
e 29 48
e 29 47
e 29 46
e 29 41
e 29 40
e 29 37
e 29 36
e 29 35
e 29 32
e 29 31
e 30 70
e 30 69
e 30 67
e 30 66
e 30 64
e 30 63
e 30 61
e 30 60
e 30 59
e 30 57
e 30 56
e 30 55
e 30 50
e 30 49
e 30 43
e 30 42
e 30 40
e 30 39
e 30 36
e 30 35
e 31 69
e 31 65
e 31 59
e 31 58
e 31 57
e 31 56
e 31 54
e 31 52
e 31 51
e 31 41
e 31 40
e 31 39
e 31 38
e 31 37
e 31 35
e 32 67
e 32 61
e 32 57
e 32 55
e 32 50
e 32 49
e 32 48
e 32 44
e 32 43
e 32 39
e 32 38
e 32 35
e 32 34
e 32 33
e 33 70
e 33 63
e 33 62
e 33 61
e 33 60
e 33 58
e 33 57
e 33 53
e 33 51
e 33 48
e 33 47
e 33 45
e 33 43
e 33 37
e 34 70
e 34 69
e 34 65
e 34 63
e 34 62
e 34 56
e 34 54
e 34 53
e 34 49
e 34 47
e 34 45
e 34 44
e 34 40
e 34 37
e 34 36
e 34 35
e 35 67
e 35 65
e 35 61
e 35 59
e 35 58
e 35 57
e 35 56
e 35 54
e 35 52
e 35 50
e 35 48
e 35 47
e 35 46
e 35 43
e 35 36
e 36 70
e 36 69
e 36 68
e 36 66
e 36 65
e 36 64
e 36 63
e 36 62
e 36 59
e 36 58
e 36 57
e 36 56
e 36 52
e 36 51
e 36 45
e 36 42
e 36 41
e 36 40
e 36 39
e 37 68
e 37 63
e 37 62
e 37 61
e 37 58
e 37 56
e 37 55
e 37 54
e 37 51
e 37 47
e 37 46
e 37 44
e 37 38
e 38 70
e 38 68
e 38 67
e 38 64
e 38 63
e 38 61
e 38 60
e 38 53
e 38 52
e 38 51
e 38 50
e 38 49
e 38 47
e 38 44
e 39 70
e 39 68
e 39 67
e 39 64
e 39 63
e 39 62
e 39 60
e 39 58
e 39 57
e 39 55
e 39 52
e 39 50
e 39 49
e 39 47
e 39 44
e 39 41
e 39 40
e 40 70
e 40 68
e 40 66
e 40 65
e 40 61
e 40 60
e 40 59
e 40 55
e 40 52
e 40 50
e 40 47
e 40 46
e 40 45
e 40 43
e 41 70
e 41 69
e 41 67
e 41 64
e 41 63
e 41 62
e 41 61
e 41 58
e 41 57
e 41 56
e 41 53
e 41 48
e 41 46
e 41 45
e 41 44
e 42 68
e 42 66
e 42 64
e 42 61
e 42 55
e 42 54
e 42 53
e 42 47
e 42 46
e 42 45
e 42 44
e 42 43
e 43 66
e 43 64
e 43 62
e 43 58
e 43 55
e 43 52
e 43 51
e 43 50
e 43 48
e 43 47
e 44 69
e 44 58
e 44 57
e 44 56
e 44 51
e 44 48
e 44 47
e 44 45
e 45 64
e 45 57
e 45 53
e 45 49
e 45 47
e 46 68
e 46 56
e 47 69
e 47 67
e 47 66
e 47 64
e 47 61
e 47 60
e 47 56
e 47 55
e 47 54
e 47 53
e 47 48
e 48 70
e 48 63
e 48 62
e 48 57
e 48 54
e 49 67
e 49 59
e 49 53
e 49 50
e 50 66
e 50 65
e 50 64
e 50 63
e 50 60
e 50 58
e 50 56
e 50 55
e 50 51
e 51 69
e 51 67
e 51 65
e 51 61
e 51 56
e 51 55
e 52 70
e 52 68
e 52 67
e 52 66
e 52 65
e 52 62
e 52 61
e 52 55
e 52 53
e 53 66
e 53 64
e 53 63
e 53 62
e 53 59
e 53 58
e 53 56
e 53 55
e 54 70
e 54 69
e 54 68
e 54 67
e 54 65
e 54 62
e 54 59
e 54 56
e 54 55
e 55 69
e 55 68
e 55 67
e 55 63
e 55 62
e 55 57
e 56 62
e 56 61
e 56 57
e 57 69
e 57 67
e 57 66
e 57 61
e 58 70
e 58 66
e 58 63
e 58 60
e 59 69
e 59 67
e 59 65
e 59 64
e 59 62
e 59 61
e 59 60
e 60 69
e 60 68
e 60 67
e 60 65
e 60 63
e 60 62
e 60 61
e 61 69
e 61 67
e 61 63
e 61 62
e 62 70
e 62 68
e 62 67
e 62 64
e 63 70
e 63 67
e 63 66
e 63 65
e 64 69
e 64 65
e 65 69
e 65 68
e 66 69
e 66 68
e 67 70
e 67 69
